SECTION Graph
Nodes 257
Edges 515
E 1 2 1
E 1 227 11
E 1 230 7
E 2 3 14
E 2 228 11
E 3 4 1
E 3 233 11
E 4 234 11
E 5 6 1
E 5 88 23
E 6 7 14
E 6 89 23
E 7 8 1
E 7 90 23
E 8 68 7
E 8 91 23
E 9 10 1
E 9 218 7
E 9 227 12
E 10 11 14
E 10 228 12
E 11 12 1
E 11 233 12
E 12 234 12
E 13 14 1
E 13 224 7
E 13 225 4
E 14 15 14
E 14 226 4
E 15 16 1
E 15 231 4
E 16 232 4
E 17 18 1
E 17 203 7
E 17 205 6
E 17 221 11
E 18 19 14
E 18 207 6
E 18 222 11
E 19 20 1
E 19 219 6
E 19 229 11
E 20 220 6
E 20 227 7
E 20 230 11
E 21 22 1
E 21 170 7
E 21 197 11
E 22 23 14
E 22 200 11
E 23 24 1
E 23 216 11
E 24 218 11
E 25 26 1
E 25 194 7
E 25 196 6
E 25 209 4
E 26 27 14
E 26 199 6
E 26 212 4
E 27 28 1
E 27 215 6
E 27 223 4
E 28 217 6
E 28 224 4
E 28 225 7
E 29 30 1
E 29 163 7
E 29 165 6
E 29 178 6
E 30 31 14
E 30 167 6
E 30 182 6
E 31 32 1
E 31 187 6
E 31 201 6
E 32 189 6
E 32 203 6
E 32 205 7
E 33 34 1
E 33 137 7
E 33 146 6
E 34 35 14
E 34 150 6
E 35 36 1
E 35 168 6
E 36 170 6
E 37 38 1
E 37 195 4
E 38 198 4
E 38 210 6
E 39 40 1
E 39 211 8
E 39 214 6
E 40 213 8
E 41 42 1
E 41 67 7
E 41 113 23
E 42 43 14
E 42 115 23
E 43 44 1
E 43 129 23
E 44 131 23
E 45 46 6
E 45 181 7
E 45 184 6
E 45 193 2
E 46 47 2
E 46 191 6
E 46 206 4
E 47 193 6
E 47 208 4
E 47 211 6
E 48 49 1
E 48 159 2
E 49 50 14
E 49 162 2
E 50 51 1
E 50 179 2
E 51 183 2
E 51 195 7
E 52 53 1
E 52 130 7
E 52 132 2
E 52 147 13
E 53 54 14
E 53 135 2
E 53 151 13
E 54 55 1
E 54 148 2
E 54 169 13
E 55 152 2
E 55 164 7
E 55 171 13
E 56 57 1
E 56 107 7
E 56 108 2
E 56 118 6
E 57 58 14
E 57 110 2
E 57 120 6
E 58 59 1
E 58 126 2
E 58 133 6
E 59 127 2
E 59 136 6
E 59 138 7
E 60 61 1
E 60 95 7
E 60 96 2
E 60 100 6
E 61 62 14
E 61 97 2
E 61 101 6
E 62 63 1
E 62 104 2
E 62 109 6
E 63 105 2
E 63 111 6
E 63 113 7
E 64 65 1
E 64 68 23
E 64 91 7
E 64 96 21
E 65 66 14
E 65 69 23
E 65 97 21
E 66 67 1
E 66 70 23
E 66 104 21
E 67 71 23
E 67 105 21
E 68 69 1
E 69 70 14
E 70 71 1
E 72 73 1
E 72 112 21
E 73 74 14
E 73 114 21
E 74 75 1
E 74 128 21
E 75 130 21
E 75 159 7
E 76 77 1
E 76 98 21
E 76 112 2
E 77 78 14
E 77 99 21
E 77 114 2
E 78 79 1
E 78 106 21
E 78 128 2
E 79 107 21
E 79 130 2
E 79 132 7
E 80 81 1
E 80 92 21
E 80 98 2
E 81 82 14
E 81 93 21
E 81 99 2
E 82 83 1
E 82 94 21
E 82 106 2
E 83 95 21
E 83 107 2
E 83 108 7
E 84 85 1
E 84 88 21
E 84 92 2
E 85 86 14
E 85 89 21
E 85 93 2
E 86 87 1
E 86 90 21
E 86 94 2
E 87 91 21
E 87 95 2
E 87 96 7
E 88 89 1
E 89 90 14
E 90 91 1
E 92 93 1
E 93 94 14
E 94 95 1
E 96 97 1
E 97 104 14
E 98 99 1
E 99 106 14
E 100 101 1
E 100 102 6
E 101 103 6
E 101 109 14
E 102 103 1
E 102 108 9
E 103 110 9
E 103 116 14
E 104 105 1
E 106 107 1
E 108 110 1
E 109 111 1
E 109 116 6
E 110 126 14
E 111 117 6
E 111 119 7
E 112 114 1
E 113 115 1
E 113 119 6
E 114 128 14
E 115 121 6
E 115 122 6
E 116 117 1
E 116 126 9
E 117 127 9
E 117 146 30
E 118 120 1
E 118 124 6
E 119 121 1
E 119 138 17
E 120 125 6
E 120 133 14
E 121 134 14
E 121 139 17
E 122 123 2
E 122 144 23
E 123 129 6
E 123 145 23
E 124 125 1
E 124 132 9
E 125 135 9
E 125 140 14
E 126 127 1
E 128 130 1
E 129 131 1
E 129 134 6
E 131 137 6
E 132 135 1
E 133 136 1
E 133 140 6
E 134 137 1
E 134 154 17
E 135 148 14
E 136 141 6
E 136 142 7
E 137 155 17
E 138 139 1
E 138 142 6
E 139 143 6
E 139 144 6
E 140 141 1
E 140 148 9
E 141 152 9
E 141 157 14
E 142 143 1
E 142 164 17
E 143 149 6
E 143 166 17
E 144 145 2
E 144 149 6
E 145 153 6
E 145 154 6
E 146 150 1
E 146 165 11
E 147 151 1
E 147 156 6
E 148 152 1
E 149 153 2
E 149 157 6
E 150 167 11
E 150 168 14
E 151 158 6
E 151 169 14
E 153 160 6
E 153 161 6
E 154 155 1
E 154 161 6
E 155 163 6
E 155 165 7
E 156 158 1
E 156 159 2
E 157 160 2
E 157 174 11
E 158 162 2
E 158 176 14
E 159 162 1
E 160 175 11
E 160 178 14
E 161 163 1
E 161 186 17
E 162 179 14
E 163 188 17
E 164 166 1
E 164 172 6
E 165 167 1
E 166 173 6
E 166 174 6
E 167 187 14
E 168 170 1
E 168 187 11
E 169 171 1
E 169 176 6
E 170 189 11
E 171 177 6
E 171 180 7
E 172 173 1
E 172 180 7
E 173 181 6
E 173 184 7
E 174 175 2
E 174 181 6
E 175 185 6
E 175 186 6
E 176 177 1
E 176 179 2
E 177 183 2
E 177 190 7
E 178 182 1
E 178 196 11
E 179 183 1
E 180 184 1
E 180 190 6
E 181 185 2
E 182 199 11
E 182 201 14
E 184 191 6
E 185 192 6
E 185 193 7
E 186 188 1
E 186 192 6
E 187 189 1
E 188 194 6
E 188 196 7
E 189 197 7
E 190 191 1
E 190 195 4
E 191 198 4
E 192 194 1
E 192 202 7
E 193 202 6
E 194 204 7
E 195 198 1
E 196 199 1
E 197 200 1
E 197 205 6
E 198 206 6
E 199 215 14
E 200 207 6
E 200 216 14
E 201 203 1
E 201 215 11
E 202 204 1
E 202 211 6
E 203 217 11
E 204 209 10
E 204 213 6
E 205 207 1
E 206 208 2
E 206 210 4
E 207 219 14
E 208 214 4
E 209 212 1
E 210 214 2
E 211 213 1
E 212 223 14
E 215 217 1
E 216 218 1
E 216 219 6
E 217 221 7
E 218 220 6
E 219 220 1
E 221 222 1
E 221 225 6
E 222 226 6
E 222 229 14
E 223 224 1
E 225 226 1
E 226 231 14
E 227 228 1
E 228 233 14
E 229 230 1
E 229 231 6
E 230 232 6
E 231 232 1
E 233 234 1
E 1 235 100000
E 2 235 100000
E 3 235 100000
E 4 235 100000
E 5 236 100000
E 6 236 100000
E 7 236 100000
E 8 236 100000
E 9 237 100000
E 10 237 100000
E 11 237 100000
E 12 237 100000
E 13 238 100000
E 14 238 100000
E 15 238 100000
E 16 238 100000
E 17 239 100000
E 18 239 100000
E 19 239 100000
E 20 239 100000
E 21 240 100000
E 22 240 100000
E 23 240 100000
E 24 240 100000
E 25 241 100000
E 26 241 100000
E 27 241 100000
E 28 241 100000
E 29 242 100000
E 30 242 100000
E 31 242 100000
E 32 242 100000
E 33 243 100000
E 34 243 100000
E 35 243 100000
E 36 243 100000
E 37 244 100000
E 38 244 100000
E 39 244 100000
E 40 244 100000
E 41 245 100000
E 42 245 100000
E 43 245 100000
E 44 245 100000
E 45 246 100000
E 46 246 100000
E 47 246 100000
E 48 247 100000
E 49 247 100000
E 50 247 100000
E 51 247 100000
E 52 248 100000
E 53 248 100000
E 54 248 100000
E 55 248 100000
E 56 249 100000
E 57 249 100000
E 58 249 100000
E 59 249 100000
E 60 250 100000
E 61 250 100000
E 62 250 100000
E 63 250 100000
E 64 251 100000
E 65 251 100000
E 66 251 100000
E 67 251 100000
E 68 252 100000
E 69 252 100000
E 70 252 100000
E 71 252 100000
E 72 253 100000
E 73 253 100000
E 74 253 100000
E 75 253 100000
E 76 254 100000
E 77 254 100000
E 78 254 100000
E 79 254 100000
E 80 255 100000
E 81 255 100000
E 82 255 100000
E 83 255 100000
E 84 256 100000
E 85 256 100000
E 86 256 100000
E 87 256 100000
E 88 257 100000
E 89 257 100000
E 90 257 100000
E 91 257 100000
END

SECTION Terminals
Terminals 23
T 235
T 236
T 237
T 238
T 239
T 240
T 241
T 242
T 243
T 244
T 245
T 246
T 247
T 248
T 249
T 250
T 251
T 252
T 253
T 254
T 255
T 256
T 257
END

SECTION Tree Decomposition
c We do not guarantee that this tree decomposition has minimum width.
s td 220 16 257
b 1 246 46 47 45
b 2 24 23 240 218
b 3 36 243 35 170
b 4 37 38 244 195
b 5 12 237 11 234
b 6 40 39 213 244
b 7 44 245 43 131
b 8 48 49 247 159
b 9 4 234 3 235
b 10 16 238 15 232
b 11 5 6 236 88
b 12 71 70 252 67
b 13 72 253 73 112
b 14 92 84 80 93
b 15 98 76 99 80
b 16 100 102 60 101
b 17 105 104 67 63
b 18 118 124 120 56
b 19 122 123 144 115
b 20 127 117 126 59
b 21 147 156 151 52
b 22 152 148 55 141
b 23 172 164 173 180
b 24 183 179 51 177
b 25 208 206 214 47
b 26 209 212 25 204
b 27 210 38 206 214
b 28 220 219 20 218
b 29 223 224 212 27
b 30 23 240 22 216 218
b 31 240 22 216 21 218
b 32 22 216 200 21 218
b 33 216 200 21 219 218
b 34 255 81 82 83 80
b 35 243 35 34 33 170
b 36 35 34 168 33 170
b 37 34 168 150 33 170
b 38 245 43 131 42 41
b 39 43 131 42 129 41
b 40 239 18 19 20 17
b 41 256 85 84 86 87
b 42 131 42 129 41 137
b 43 257 88 89 90 91
b 44 241 26 28 27 25
b 45 251 66 65 67 64
b 46 237 11 10 234 9
b 47 11 10 233 234 9
b 48 10 233 234 228 9
b 49 233 234 3 228 9
b 50 234 3 235 228 9
b 51 3 2 235 228 9
b 52 2 235 228 1 9
b 53 228 1 227 9
b 54 1 227 9 230
b 55 227 9 230 20
b 56 9 230 20 218
b 57 253 73 74 112 75
b 58 73 74 112 114 75
b 59 74 112 114 128 75
b 60 112 114 128 75 76
b 61 114 128 75 77 76
b 62 49 247 50 162 159
b 63 247 50 162 51 159
b 64 50 162 179 51 159
b 65 42 129 115 41 137
b 66 162 179 51 158 159
b 67 6 236 7 88 89
b 68 236 7 88 89 8
b 69 7 88 89 90 8
b 70 238 15 14 232 13
b 71 15 14 231 232 13
b 72 14 231 232 226 13
b 73 249 58 56 57 59
b 74 231 232 226 229 13
b 75 232 226 229 230 13
b 76 248 54 52 53 55
b 77 250 61 62 60 63
b 78 254 77 76 78 79
b 79 242 31 30 32 29
b 80 168 150 33 187 170
b 81 70 252 69 66 67
b 82 252 69 66 67 68
b 83 69 66 65 67 68
b 84 66 65 104 67 68 64
b 85 65 104 67 68 64 97
b 86 102 103 108 60 101
b 87 123 144 129 115 145
b 88 156 158 151 52 159
b 89 39 213 211 244 214
b 90 213 211 244 214 204
b 91 124 120 125 56 132
b 92 224 212 28 27 13
b 93 88 89 90 8 91 84
b 94 89 90 8 91 85 84
b 95 90 8 91 85 84 86
b 96 8 91 85 84 86 68
b 97 179 51 176 158 177 159
b 98 51 176 158 177 159 195
b 99 176 158 169 177 159 195
b 100 46 206 47 45 191
b 101 26 212 28 27 199 25
b 102 128 75 130 77 76 78
b 103 75 130 77 76 78 159
b 104 150 33 187 170 167 146
b 105 33 187 170 167 137 146
b 106 211 244 214 47 202 204
b 107 200 21 219 207 197 218
b 108 21 219 207 197 218 170
b 109 226 229 230 222 13 225
b 110 229 230 19 222 13 225
b 111 81 82 99 83 80 93
b 112 158 151 169 177 52 159 195
b 113 151 169 177 52 53 159 195
b 114 130 77 76 78 79 52 159
b 115 77 76 78 99 79 52 159
b 116 76 78 99 79 80 52 159
b 117 78 99 106 79 80 52 159
b 118 91 85 84 86 87 68 64
b 119 85 84 86 87 68 64 93
b 120 84 86 87 68 64 80 93
b 121 86 87 68 64 80 93 94
b 122 136 133 59 141 142
b 123 138 59 142 119 139
b 124 155 165 163 137 154
b 125 203 17 217 32 201
b 126 95 87 60 83 94
b 127 96 87 64 97 60
b 128 198 38 206 191 195
b 129 38 206 244 214 191 195
b 130 206 244 214 47 45 191 195
b 131 107 106 79 83 56
b 132 109 62 101 116 111
b 133 110 103 108 57 126
b 134 113 115 41 63 119
b 135 188 196 163 186 194
b 136 121 134 115 119 139
b 137 175 185 174 160 186
b 138 157 174 141 149 160
b 139 135 125 132 53 148
b 140 184 45 173 180 191
b 141 192 202 185 186 194
b 142 215 27 217 199 201
b 143 153 161 145 149 160
b 144 193 47 202 45 185
b 145 166 143 164 173 174
b 146 171 169 177 55 180
b 147 178 182 196 29 160
b 148 205 207 197 17 32
b 149 221 222 17 217 225
b 150 189 197 32 187 170
b 151 190 177 180 191 195
b 152 181 45 185 173 174
b 153 140 125 133 148 141
b 154 58 133 56 57 126 59
b 155 61 97 62 60 101 63
b 156 120 125 133 56 57 132
b 157 54 169 52 53 148 55
b 158 212 28 27 13 199 25 204
b 159 244 214 47 202 45 191 195 204
b 160 47 202 45 185 191 195 204
b 161 144 129 115 139 145 149
b 162 31 30 32 201 187 29
b 163 30 32 201 182 187 29 167
b 164 18 207 19 20 222 17
b 165 104 67 68 64 97 62 63
b 166 67 68 64 97 62 41 63
b 167 103 108 60 101 116 57 126
b 168 230 19 20 218 222 13 225
b 169 219 207 197 19 20 218 170
b 170 82 99 106 83 80 93 94
b 171 202 45 185 191 195 186 194 204
b 172 28 27 217 13 225 199 25 204
b 173 27 217 13 225 199 25 201 204
b 174 108 60 101 116 83 56 57 126
b 175 117 116 111 126 59 146
b 176 165 29 167 163 137 146 154
b 177 134 129 115 119 137 139 154
b 178 161 163 145 149 154 160 186
b 179 99 106 79 83 80 93 94 52 159
b 180 106 79 83 80 93 94 56 52 159
b 181 79 83 80 93 94 56 132 52 159
b 182 207 197 19 20 218 222 17 32 170
b 183 197 19 20 218 222 17 32 187 170
b 184 19 20 218 222 17 13 225 32 187 170
b 185 222 17 217 13 225 32 187 170
b 186 17 217 13 225 32 201 187 170
b 187 143 164 173 174 142 139 149
b 188 125 133 56 57 132 53 148 141
b 189 164 173 174 55 142 180 139 149
b 190 129 115 41 119 137 139 145 149 154
b 191 115 41 63 119 137 139 145 149 154
b 192 87 68 64 97 60 83 80 93 94
b 193 169 177 52 53 148 159 55 180 195
b 194 177 52 53 148 159 55 180 191 195
b 195 217 13 225 199 25 32 201 187 170 204
b 196 199 25 32 201 182 196 187 170 204
b 197 25 32 201 182 196 187 170 194 204
b 198 32 201 182 196 187 170 29 167 194 204
b 199 182 196 187 170 29 167 160 194 204
b 200 196 187 170 29 167 163 160 186 194 204
b 201 187 170 29 167 163 137 146 160 186 194 204
b 202 29 167 163 137 146 154 160 186 194 204
b 203 163 137 145 146 149 154 160 186 194 204
b 204 133 56 57 126 132 59 53 148 141 142
b 205 45 185 173 174 180 191 195 186 194 204
b 206 185 173 174 180 191 195 160 186 194 204
b 207 68 64 97 62 60 83 80 93 94 41 63
b 208 97 62 60 101 83 80 93 94 41 63
b 209 62 60 101 116 111 83 80 93 94 41 63
b 210 60 101 116 111 83 80 93 94 56 57 126 41 63
b 211 116 111 83 80 93 94 56 57 126 59 41 63 146
b 212 111 83 80 93 94 56 57 126 59 41 63 119 146
b 213 173 174 55 142 180 191 195 139 149 160 186 194 204
b 214 174 55 141 142 180 191 195 139 149 160 186 194 204
b 215 83 80 93 94 56 57 126 132 59 52 159 41 63 119 146
b 216 56 57 126 132 59 52 53 148 159 141 142 41 63 119 146
b 217 59 52 53 148 159 141 142 41 63 119 139 146
b 218 52 53 148 159 55 141 142 180 191 195 41 63 119 139 146
b 219 55 141 142 180 191 195 41 63 119 139 146 149 160 186 194 204
b 220 41 63 119 137 139 145 146 149 154 160 186 194 204
1 100
100 130
130 159
159 160
160 171
171 205
205 206
206 213
213 214
214 219
219 218
218 217
217 216
216 215
215 212
212 211
211 210
219 220
210 209
216 204
220 203
209 208
208 207
218 194
215 181
220 191
203 202
202 201
201 200
200 199
199 198
198 197
197 196
207 192
194 193
181 180
180 179
191 190
196 195
195 173
195 186
173 172
186 185
185 184
184 183
183 182
210 174
204 188
213 189
198 163
192 121
193 113
179 117
190 177
172 158
179 170
182 169
174 167
202 176
184 168
189 187
121 120
113 112
117 116
120 119
116 115
119 118
115 114
203 178
207 166
166 165
201 105
193 157
190 161
182 164
188 156
163 162
158 101
170 111
169 108
168 110
112 99
159 106
118 96
114 103
165 85
105 104
108 107
110 109
99 98
96 95
103 102
85 84
98 97
95 94
94 93
211 175
204 154
130 129
208 155
214 138
200 135
199 147
192 126
192 127
193 146
180 131
190 65
160 144
173 142
186 125
185 149
183 150
182 148
188 153
188 139
217 123
177 136
158 92
167 86
167 133
171 141
176 124
187 145
112 88
119 41
115 78
178 143
157 76
161 87
164 40
156 91
162 79
101 44
111 34
106 90
205 140
104 80
107 33
109 75
102 61
84 45
84 83
97 66
205 152
93 43
154 73
129 128
155 77
93 69
65 42
90 89
206 137
80 37
33 32
75 74
61 60
83 82
66 64
209 132
42 39
69 68
37 36
32 31
74 72
60 59
82 81
204 122
64 63
39 38
68 67
36 35
31 30
72 71
59 58
63 62
71 70
58 57
194 151
191 134
38 7
218 22
130 25
189 23
158 26
169 28
168 56
120 14
116 15
165 17
97 24
175 20
129 4
129 27
92 29
86 16
88 21
87 19
91 18
89 6
81 12
56 55
55 54
54 53
53 52
52 51
51 50
50 49
49 48
48 47
47 46
50 9
46 5
67 11
35 3
30 2
62 8
57 13
70 10
END

EOF
